NAME : random_0
COMMENT : 45 random nodes
TYPE : TSP
DIMENSION : 45
EDGE_WEIGHT_TYPE : EUC_2D
NODE_COORD_SECTION
1 252 -1580
2 327 -696
3 -1739 -2172
4 383 190
5 5355 2869
6 3591 -524
7 -1492 2137
8 -5783 1479
9 -4549 3662
10 -5572 -5668
11 -1196 -6009
12 2486 1211
13 6886 4869
14 2961 -5340
15 -6099 -548
16 -5390 -3222
17 5016 7016
18 -2954 -3148
19 4028 5274
20 2783 5491
21 7094 -6166
22 -4348 -468
23 5821 -519
24 4604 1145
25 -2728 -2270
26 -2260 -5466
27 2021 7149
28 -3299 -4888
29 5346 -3812
30 -4367 -886
31 -881 -516
32 -5697 -2303
33 1989 5464
34 2730 5395
35 -3168 -1431
36 6727 6101
37 2510 6056
38 -4016 -6023
39 -1966 -5543
40 607 2566
41 1811 5420
42 1934 3384
43 -4130 1594
44 4601 1324
45 5228 -340
EOF